0 31 
1 34 
2 34 
3 33 
4 34 
5 36 
6 37 
7 35 
8 36 
9 35 
10 35 
11 33 
12 32 
13 32 
14 33 
15 34 
16 32 
17 34 
18 32 
19 29 
20 28 
21 27 
22 30 
23 28 
24 27 
25 26 
26 24 
27 24 
28 25 
29 26 
30 23 
31 21 
32 19 
33 17 
34 18 
35 19 
36 17 
37 15 
38 13 
39 14 
40 14 
41 13 
42 10 
43 7 
44 7 
45 5 
46 7 
47 3 
48 3 
49 3 
50 3 
51 4 
52 3 
53 2 
54 2 
55 1 
56 2 
57 2 
58 1 
59 1 
60 0 
61 0 

